(set-logic QF_S)
(declare-fun var0 () String)
(declare-fun var1 () Int)
(declare-fun var2 () Bool)
(declare-fun var3 () String)
(declare-fun var4 () Int)
(declare-fun var5 () Bool)
(declare-fun var6 () String)
(declare-fun var7 () Int)
(declare-fun var8 () Bool)
(assert (not (not (not var2))))
(assert (str.suffixof "%|s.sd""bKe" var0))
(assert (str.suffixof (str.substr var0 var7 var1) (str.replace var6 var6 var6)))
(assert (< (str.indexof var6 var0 var1) (str.indexof var6 var3 var7)))
(check-sat)